(set-logic BV)
 (set-info :status unsat)
(declare-fun ex_49 () (_ BitVec 1))
(declare-fun ex_48 () (_ BitVec 1))
(declare-fun ex_47 () (_ BitVec 1))
(declare-fun ex_46 () (_ BitVec 1))
(declare-fun ex_45 () (_ BitVec 1))
(declare-fun ex_44 () (_ BitVec 1))
(declare-fun ex_43 () (_ BitVec 1))
(declare-fun ex_42 () (_ BitVec 1))
(declare-fun ex_41 () (_ BitVec 1))
(declare-fun ex_40 () (_ BitVec 1))
(declare-fun ex_39 () (_ BitVec 1))
(declare-fun ex_38 () (_ BitVec 1))
(declare-fun ex_37 () (_ BitVec 1))
(declare-fun ex_36 () (_ BitVec 1))
(declare-fun ex_35 () (_ BitVec 1))
(declare-fun ex_34 () (_ BitVec 1))
(declare-fun ex_33 () (_ BitVec 1))
(declare-fun ex_32 () (_ BitVec 1))
(declare-fun ex_31 () (_ BitVec 1))
(declare-fun ex_30 () (_ BitVec 1))
(declare-fun ex_29 () (_ BitVec 1))
(declare-fun ex_28 () (_ BitVec 1))
(declare-fun ex_27 () (_ BitVec 1))
(declare-fun ex_26 () (_ BitVec 1))
(declare-fun ex_25 () (_ BitVec 1))
(declare-fun ex_24 () (_ BitVec 1))
(declare-fun ex_23 () (_ BitVec 1))
(declare-fun ex_22 () (_ BitVec 1))
(declare-fun ex_21 () (_ BitVec 1))
(declare-fun ex_20 () (_ BitVec 1))
(declare-fun ex_19 () (_ BitVec 1))
(declare-fun ex_18 () (_ BitVec 1))
(declare-fun ex_17 () (_ BitVec 1))
(declare-fun ex_16 () (_ BitVec 1))
(declare-fun ex_15 () (_ BitVec 1))
(declare-fun ex_14 () (_ BitVec 1))
(declare-fun ex_13 () (_ BitVec 1))
(declare-fun ex_12 () (_ BitVec 1))
(declare-fun ex_11 () (_ BitVec 1))
(declare-fun ex_10 () (_ BitVec 1))
(declare-fun ex_9 () (_ BitVec 1))
(declare-fun ex_8 () (_ BitVec 1))
(declare-fun ex_7 () (_ BitVec 1))
(declare-fun ex_6 () (_ BitVec 1))
(declare-fun ex_5 () (_ BitVec 1))
(declare-fun ex_4 () (_ BitVec 1))
(declare-fun ex_3 () (_ BitVec 1))
(declare-fun ex_2 () (_ BitVec 1))
(declare-fun ex_1 () (_ BitVec 1))
(declare-fun ez_49 () (_ BitVec 1))
(declare-fun ez_48 () (_ BitVec 1))
(declare-fun ez_47 () (_ BitVec 1))
(declare-fun ez_46 () (_ BitVec 1))
(declare-fun ez_45 () (_ BitVec 1))
(declare-fun ez_44 () (_ BitVec 1))
(declare-fun ez_43 () (_ BitVec 1))
(declare-fun ez_42 () (_ BitVec 1))
(declare-fun ez_41 () (_ BitVec 1))
(declare-fun ez_40 () (_ BitVec 1))
(declare-fun ez_39 () (_ BitVec 1))
(declare-fun ez_38 () (_ BitVec 1))
(declare-fun ez_37 () (_ BitVec 1))
(declare-fun ez_36 () (_ BitVec 1))
(declare-fun ez_35 () (_ BitVec 1))
(declare-fun ez_34 () (_ BitVec 1))
(declare-fun ez_33 () (_ BitVec 1))
(declare-fun ez_32 () (_ BitVec 1))
(declare-fun ez_31 () (_ BitVec 1))
(declare-fun ez_30 () (_ BitVec 1))
(declare-fun ez_29 () (_ BitVec 1))
(declare-fun ez_28 () (_ BitVec 1))
(declare-fun ez_27 () (_ BitVec 1))
(declare-fun ez_26 () (_ BitVec 1))
(declare-fun ez_25 () (_ BitVec 1))
(declare-fun ez_24 () (_ BitVec 1))
(declare-fun ez_23 () (_ BitVec 1))
(declare-fun ez_22 () (_ BitVec 1))
(declare-fun ez_21 () (_ BitVec 1))
(declare-fun ez_20 () (_ BitVec 1))
(declare-fun ez_19 () (_ BitVec 1))
(declare-fun ez_18 () (_ BitVec 1))
(declare-fun ez_17 () (_ BitVec 1))
(declare-fun ez_16 () (_ BitVec 1))
(declare-fun ez_15 () (_ BitVec 1))
(declare-fun ez_14 () (_ BitVec 1))
(declare-fun ez_13 () (_ BitVec 1))
(declare-fun ez_12 () (_ BitVec 1))
(declare-fun ez_11 () (_ BitVec 1))
(declare-fun ez_10 () (_ BitVec 1))
(declare-fun ez_9 () (_ BitVec 1))
(declare-fun ez_8 () (_ BitVec 1))
(declare-fun ez_7 () (_ BitVec 1))
(declare-fun ez_6 () (_ BitVec 1))
(declare-fun ez_5 () (_ BitVec 1))
(declare-fun ez_4 () (_ BitVec 1))
(declare-fun ez_3 () (_ BitVec 1))
(declare-fun ez_2 () (_ BitVec 1))
(declare-fun ez_1 () (_ BitVec 1))
(assert
 (forall ((s_1 (_ BitVec 1)) (cz_2 (_ BitVec 1)) (cz_3 (_ BitVec 1)) (cz_9 (_ BitVec 1)) (cz_10 (_ BitVec 1)) (s_2 (_ BitVec 1)) (cz_8 (_ BitVec 1)) (cz_15 (_ BitVec 1)) (cz_16 (_ BitVec 1)) (s_3 (_ BitVec 1)) (cz_4 (_ BitVec 1)) (cz_5 (_ BitVec 1)) (cz_11 (_ BitVec 1)) (cz_12 (_ BitVec 1)) (s_4 (_ BitVec 1)) (cz_17 (_ BitVec 1)) (cz_18 (_ BitVec 1)) (s_5 (_ BitVec 1)) (cz_6 (_ BitVec 1)) (cz_7 (_ BitVec 1)) (cz_13 (_ BitVec 1)) (cz_14 (_ BitVec 1)) (s_6 (_ BitVec 1)) (cz_19 (_ BitVec 1)) (cz_20 (_ BitVec 1)) (s_7 (_ BitVec 1)) (cz_1 (_ BitVec 1)) (s_8 (_ BitVec 1)) (cz_21 (_ BitVec 1)) (s_9 (_ BitVec 1)) (cz_23 (_ BitVec 1)) (cz_24 (_ BitVec 1)) (s_10 (_ BitVec 1)) (cz_22 (_ BitVec 1)) (cz_29 (_ BitVec 1)) (cz_30 (_ BitVec 1)) (s_11 (_ BitVec 1)) (cz_25 (_ BitVec 1)) (cz_26 (_ BitVec 1)) (s_12 (_ BitVec 1)) (cz_31 (_ BitVec 1)) (cz_32 (_ BitVec 1)) (s_13 (_ BitVec 1)) (cz_27 (_ BitVec 1)) (cz_28 (_ BitVec 1)) (s_14 (_ BitVec 1)) (cz_33 (_ BitVec 1)) (cz_34 (_ BitVec 1)) (s_15 (_ BitVec 1)) (s_16 (_ BitVec 1)) (cz_35 (_ BitVec 1)) (s_17 (_ BitVec 1)) (cz_37 (_ BitVec 1)) (cz_38 (_ BitVec 1)) (s_18 (_ BitVec 1)) (cz_36 (_ BitVec 1)) (cz_43 (_ BitVec 1)) (cz_44 (_ BitVec 1)) (s_19 (_ BitVec 1)) (cz_39 (_ BitVec 1)) (cz_40 (_ BitVec 1)) (s_20 (_ BitVec 1)) (cz_45 (_ BitVec 1)) (cz_46 (_ BitVec 1)) (s_21 (_ BitVec 1)) (cz_41 (_ BitVec 1)) (cz_42 (_ BitVec 1)) (s_22 (_ BitVec 1)) (cz_47 (_ BitVec 1)) (cz_48 (_ BitVec 1)) (s_23 (_ BitVec 1)) (s_24 (_ BitVec 1)) (cz_49 (_ BitVec 1)) (s_25 (_ BitVec 1)) (cx_1 (_ BitVec 1)) (cx_2 (_ BitVec 1)) (cx_8 (_ BitVec 1)) (cx_9 (_ BitVec 1)) (s_26 (_ BitVec 1)) (cx_10 (_ BitVec 1)) (cx_16 (_ BitVec 1)) (cx_17 (_ BitVec 1)) (s_27 (_ BitVec 1)) (cx_3 (_ BitVec 1)) (cx_4 (_ BitVec 1)) (cx_11 (_ BitVec 1)) (s_28 (_ BitVec 1)) (cx_12 (_ BitVec 1)) (cx_18 (_ BitVec 1)) (cx_19 (_ BitVec 1)) (s_29 (_ BitVec 1)) (cx_5 (_ BitVec 1)) (cx_6 (_ BitVec 1)) (cx_13 (_ BitVec 1)) (s_30 (_ BitVec 1)) (cx_14 (_ BitVec 1)) (cx_20 (_ BitVec 1)) (cx_21 (_ BitVec 1)) (s_31 (_ BitVec 1)) (s_32 (_ BitVec 1)) (cx_43 (_ BitVec 1)) (cx_44 (_ BitVec 1)) (s_33 (_ BitVec 1)) (cx_15 (_ BitVec 1)) (cx_22 (_ BitVec 1)) (cx_23 (_ BitVec 1)) (s_34 (_ BitVec 1)) (cx_24 (_ BitVec 1)) (cx_30 (_ BitVec 1)) (cx_31 (_ BitVec 1)) (s_35 (_ BitVec 1)) (cx_25 (_ BitVec 1)) (s_36 (_ BitVec 1)) (cx_26 (_ BitVec 1)) (cx_32 (_ BitVec 1)) (cx_33 (_ BitVec 1)) (s_37 (_ BitVec 1)) (cx_27 (_ BitVec 1)) (s_38 (_ BitVec 1)) (cx_28 (_ BitVec 1)) (cx_34 (_ BitVec 1)) (cx_35 (_ BitVec 1)) (s_39 (_ BitVec 1)) (s_40 (_ BitVec 1)) (cx_45 (_ BitVec 1)) (cx_46 (_ BitVec 1)) (s_41 (_ BitVec 1)) (cx_29 (_ BitVec 1)) (cx_36 (_ BitVec 1)) (cx_37 (_ BitVec 1)) (s_42 (_ BitVec 1)) (cx_38 (_ BitVec 1)) (s_43 (_ BitVec 1)) (cx_39 (_ BitVec 1)) (s_44 (_ BitVec 1)) (cx_40 (_ BitVec 1)) (cx_47 (_ BitVec 1)) (s_45 (_ BitVec 1)) (cx_41 (_ BitVec 1)) (s_46 (_ BitVec 1)) (cx_42 (_ BitVec 1)) (cx_48 (_ BitVec 1)) (cx_49 (_ BitVec 1)) (s_47 (_ BitVec 1)) (cx_7 (_ BitVec 1)) (s_48 (_ BitVec 1)) )(let ((?x508 (concat (_ bv0 5) ex_49)))
 (let ((?x507 (concat (_ bv0 5) ex_48)))
 (let ((?x506 (concat (_ bv0 5) ex_47)))
 (let ((?x505 (concat (_ bv0 5) ex_46)))
 (let ((?x504 (concat (_ bv0 5) ex_45)))
 (let ((?x503 (concat (_ bv0 5) ex_44)))
 (let ((?x502 (concat (_ bv0 5) ex_43)))
 (let ((?x501 (concat (_ bv0 5) ex_42)))
 (let ((?x500 (concat (_ bv0 5) ex_41)))
 (let ((?x499 (concat (_ bv0 5) ex_40)))
 (let ((?x498 (concat (_ bv0 5) ex_39)))
 (let ((?x497 (concat (_ bv0 5) ex_38)))
 (let ((?x496 (concat (_ bv0 5) ex_37)))
 (let ((?x495 (concat (_ bv0 5) ex_36)))
 (let ((?x494 (concat (_ bv0 5) ex_35)))
 (let ((?x493 (concat (_ bv0 5) ex_34)))
 (let ((?x492 (concat (_ bv0 5) ex_33)))
 (let ((?x491 (concat (_ bv0 5) ex_32)))
 (let ((?x490 (concat (_ bv0 5) ex_31)))
 (let ((?x489 (concat (_ bv0 5) ex_30)))
 (let ((?x488 (concat (_ bv0 5) ex_29)))
 (let ((?x487 (concat (_ bv0 5) ex_28)))
 (let ((?x486 (concat (_ bv0 5) ex_27)))
 (let ((?x485 (concat (_ bv0 5) ex_26)))
 (let ((?x484 (concat (_ bv0 5) ex_25)))
 (let ((?x483 (concat (_ bv0 5) ex_24)))
 (let ((?x482 (concat (_ bv0 5) ex_23)))
 (let ((?x481 (concat (_ bv0 5) ex_22)))
 (let ((?x480 (concat (_ bv0 5) ex_21)))
 (let ((?x479 (concat (_ bv0 5) ex_20)))
 (let ((?x478 (concat (_ bv0 5) ex_19)))
 (let ((?x477 (concat (_ bv0 5) ex_18)))
 (let ((?x476 (concat (_ bv0 5) ex_17)))
 (let ((?x475 (concat (_ bv0 5) ex_16)))
 (let ((?x474 (concat (_ bv0 5) ex_15)))
 (let ((?x473 (concat (_ bv0 5) ex_14)))
 (let ((?x472 (concat (_ bv0 5) ex_13)))
 (let ((?x471 (concat (_ bv0 5) ex_12)))
 (let ((?x470 (concat (_ bv0 5) ex_11)))
 (let ((?x469 (concat (_ bv0 5) ex_10)))
 (let ((?x464 (concat (_ bv0 5) ex_9)))
 (let ((?x463 (concat (_ bv0 5) ex_8)))
 (let ((?x466 (concat (_ bv0 5) ex_7)))
 (let ((?x465 (concat (_ bv0 5) ex_6)))
 (let ((?x461 (concat (_ bv0 5) ex_5)))
 (let ((?x388 (concat (_ bv0 5) ex_4)))
 (let ((?x387 (concat (_ bv0 5) ex_3)))
 (let ((?x386 (concat (_ bv0 5) ex_2)))
 (let ((?x385 (concat (_ bv0 5) ex_1)))
 (let ((?x509 (bvadd ?x385 ?x386 ?x387 ?x388 ?x461 ?x465 ?x466 ?x463 ?x464 ?x469 ?x470 ?x471 ?x472 ?x473 ?x474 ?x475 ?x476 ?x477 ?x478 ?x479 ?x480 ?x481 ?x482 ?x483 ?x484 ?x485 ?x486 ?x487 ?x488 ?x489 ?x490 ?x491 ?x492 ?x493 ?x494 ?x495 ?x496 ?x497 ?x498 ?x499 ?x500 ?x501 ?x502 ?x503 ?x504 ?x505 ?x506 ?x507 ?x508)))
 (let (($x514 (= ((_ extract 5 2) ?x509) (_ bv0 4))))
 (let ((?x1556 (ite $x514 ?x509 (_ bv3 6))))
 (let ((?x609 (concat (_ bv0 5) cx_49)))
 (let ((?x844 (concat (_ bv0 5) cx_48)))
 (let ((?x843 (concat (_ bv0 5) cx_47)))
 (let ((?x778 (concat (_ bv0 5) cx_46)))
 (let ((?x782 (concat (_ bv0 5) cx_45)))
 (let ((?x788 (concat (_ bv0 5) cx_44)))
 (let ((?x792 (concat (_ bv0 5) cx_43)))
 (let ((?x794 (concat (_ bv0 5) cx_42)))
 (let ((?x796 (concat (_ bv0 5) cx_41)))
 (let ((?x798 (concat (_ bv0 5) cx_40)))
 (let ((?x802 (concat (_ bv0 5) cx_39)))
 (let ((?x808 (concat (_ bv0 5) cx_38)))
 (let ((?x812 (concat (_ bv0 5) cx_37)))
 (let ((?x814 (concat (_ bv0 5) cx_36)))
 (let ((?x816 (concat (_ bv0 5) cx_35)))
 (let ((?x818 (concat (_ bv0 5) cx_34)))
 (let ((?x820 (concat (_ bv0 5) cx_33)))
 (let ((?x822 (concat (_ bv0 5) cx_32)))
 (let ((?x824 (concat (_ bv0 5) cx_31)))
 (let ((?x826 (concat (_ bv0 5) cx_30)))
 (let ((?x828 (concat (_ bv0 5) cx_29)))
 (let ((?x830 (concat (_ bv0 5) cx_28)))
 (let ((?x832 (concat (_ bv0 5) cx_27)))
 (let ((?x834 (concat (_ bv0 5) cx_26)))
 (let ((?x836 (concat (_ bv0 5) cx_25)))
 (let ((?x838 (concat (_ bv0 5) cx_24)))
 (let ((?x840 (concat (_ bv0 5) cx_23)))
 (let ((?x846 (concat (_ bv0 5) cx_22)))
 (let ((?x848 (concat (_ bv0 5) cx_21)))
 (let ((?x850 (concat (_ bv0 5) cx_20)))
 (let ((?x852 (concat (_ bv0 5) cx_19)))
 (let ((?x854 (concat (_ bv0 5) cx_18)))
 (let ((?x856 (concat (_ bv0 5) cx_17)))
 (let ((?x858 (concat (_ bv0 5) cx_16)))
 (let ((?x860 (concat (_ bv0 5) cx_15)))
 (let ((?x862 (concat (_ bv0 5) cx_14)))
 (let ((?x864 (concat (_ bv0 5) cx_13)))
 (let ((?x866 (concat (_ bv0 5) cx_12)))
 (let ((?x868 (concat (_ bv0 5) cx_11)))
 (let ((?x872 (concat (_ bv0 5) cx_10)))
 (let ((?x873 (concat (_ bv0 5) cx_9)))
 (let ((?x725 (concat (_ bv0 5) cx_8)))
 (let ((?x726 (concat (_ bv0 5) cx_7)))
 (let ((?x727 (concat (_ bv0 5) cx_6)))
 (let ((?x728 (concat (_ bv0 5) cx_5)))
 (let ((?x729 (concat (_ bv0 5) cx_4)))
 (let ((?x730 (concat (_ bv0 5) cx_3)))
 (let ((?x731 (concat (_ bv0 5) cx_2)))
 (let ((?x732 (concat (_ bv0 5) cx_1)))
 (let ((?x733 (bvadd ?x732 ?x731 ?x730 ?x729 ?x728 ?x727 ?x726 ?x725 ?x873 ?x872 ?x868 ?x866 ?x864 ?x862 ?x860 ?x858 ?x856 ?x854 ?x852 ?x850 ?x848 ?x846 ?x840 ?x838 ?x836 ?x834 ?x832 ?x830 ?x828 ?x826 ?x824 ?x822 ?x820 ?x818 ?x816 ?x814 ?x812 ?x808 ?x802 ?x798 ?x796 ?x794 ?x792 ?x788 ?x782 ?x778 ?x843 ?x844 ?x609)))
 (let ((?x719 (bvadd (concat (_ bv0 5) ez_1) (concat (_ bv0 5) ez_2) (concat (_ bv0 5) ez_3) (concat (_ bv0 5) ez_4) (concat (_ bv0 5) ez_5) (concat (_ bv0 5) ez_6) (concat (_ bv0 5) ez_7) (concat (_ bv0 5) ez_8) (concat (_ bv0 5) ez_9) (concat (_ bv0 5) ez_10) (concat (_ bv0 5) ez_11) (concat (_ bv0 5) ez_12) (concat (_ bv0 5) ez_13) (concat (_ bv0 5) ez_14) (concat (_ bv0 5) ez_15) (concat (_ bv0 5) ez_16) (concat (_ bv0 5) ez_17) (concat (_ bv0 5) ez_18) (concat (_ bv0 5) ez_19) (concat (_ bv0 5) ez_20) (concat (_ bv0 5) ez_21) (concat (_ bv0 5) ez_22) (concat (_ bv0 5) ez_23) (concat (_ bv0 5) ez_24) (concat (_ bv0 5) ez_25) (concat (_ bv0 5) ez_26) (concat (_ bv0 5) ez_27) (concat (_ bv0 5) ez_28) (concat (_ bv0 5) ez_29) (concat (_ bv0 5) ez_30) (concat (_ bv0 5) ez_31) (concat (_ bv0 5) ez_32) (concat (_ bv0 5) ez_33) (concat (_ bv0 5) ez_34) (concat (_ bv0 5) ez_35) (concat (_ bv0 5) ez_36) (concat (_ bv0 5) ez_37) (concat (_ bv0 5) ez_38) (concat (_ bv0 5) ez_39) (concat (_ bv0 5) ez_40) (concat (_ bv0 5) ez_41) (concat (_ bv0 5) ez_42) (concat (_ bv0 5) ez_43) (concat (_ bv0 5) ez_44) (concat (_ bv0 5) ez_45) (concat (_ bv0 5) ez_46) (concat (_ bv0 5) ez_47) (concat (_ bv0 5) ez_48) (concat (_ bv0 5) ez_49))))
 (let (($x721 (= ((_ extract 5 2) ?x719) (_ bv0 4))))
 (let ((?x1352 (ite $x721 ?x719 (_ bv3 6))))
 (let ((?x735 (concat (_ bv0 5) cz_49)))
 (let ((?x736 (concat (_ bv0 5) cz_48)))
 (let ((?x737 (concat (_ bv0 5) cz_47)))
 (let ((?x738 (concat (_ bv0 5) cz_46)))
 (let ((?x739 (concat (_ bv0 5) cz_45)))
 (let ((?x740 (concat (_ bv0 5) cz_44)))
 (let ((?x741 (concat (_ bv0 5) cz_43)))
 (let ((?x742 (concat (_ bv0 5) cz_42)))
 (let ((?x743 (concat (_ bv0 5) cz_41)))
 (let ((?x744 (concat (_ bv0 5) cz_40)))
 (let ((?x745 (concat (_ bv0 5) cz_39)))
 (let ((?x746 (concat (_ bv0 5) cz_38)))
 (let ((?x747 (concat (_ bv0 5) cz_37)))
 (let ((?x748 (concat (_ bv0 5) cz_36)))
 (let ((?x749 (concat (_ bv0 5) cz_35)))
 (let ((?x750 (concat (_ bv0 5) cz_34)))
 (let ((?x751 (concat (_ bv0 5) cz_33)))
 (let ((?x752 (concat (_ bv0 5) cz_32)))
 (let ((?x753 (concat (_ bv0 5) cz_31)))
 (let ((?x754 (concat (_ bv0 5) cz_30)))
 (let ((?x755 (concat (_ bv0 5) cz_29)))
 (let ((?x756 (concat (_ bv0 5) cz_28)))
 (let ((?x757 (concat (_ bv0 5) cz_27)))
 (let ((?x758 (concat (_ bv0 5) cz_26)))
 (let ((?x759 (concat (_ bv0 5) cz_25)))
 (let ((?x760 (concat (_ bv0 5) cz_24)))
 (let ((?x761 (concat (_ bv0 5) cz_23)))
 (let ((?x762 (concat (_ bv0 5) cz_22)))
 (let ((?x763 (concat (_ bv0 5) cz_21)))
 (let ((?x764 (concat (_ bv0 5) cz_20)))
 (let ((?x765 (concat (_ bv0 5) cz_19)))
 (let ((?x766 (concat (_ bv0 5) cz_18)))
 (let ((?x767 (concat (_ bv0 5) cz_17)))
 (let ((?x768 (concat (_ bv0 5) cz_16)))
 (let ((?x769 (concat (_ bv0 5) cz_15)))
 (let ((?x770 (concat (_ bv0 5) cz_14)))
 (let ((?x771 (concat (_ bv0 5) cz_13)))
 (let ((?x772 (concat (_ bv0 5) cz_12)))
 (let ((?x773 (concat (_ bv0 5) cz_11)))
 (let ((?x774 (concat (_ bv0 5) cz_10)))
 (let ((?x811 (concat (_ bv0 5) cz_9)))
 (let ((?x608 (concat (_ bv0 5) cz_8)))
 (let ((?x607 (concat (_ bv0 5) cz_7)))
 (let ((?x853 (concat (_ bv0 5) cz_6)))
 (let ((?x511 (concat (_ bv0 5) cz_5)))
 (let ((?x867 (concat (_ bv0 5) cz_4)))
 (let ((?x638 (concat (_ bv0 5) cz_3)))
 (let ((?x637 (concat (_ bv0 5) cz_2)))
 (let ((?x777 (concat (_ bv0 5) cz_1)))
 (let ((?x576 (bvadd ?x777 ?x637 ?x638 ?x867 ?x511 ?x853 ?x607 ?x608 ?x811 ?x774 ?x773 ?x772 ?x771 ?x770 ?x769 ?x768 ?x767 ?x766 ?x765 ?x764 ?x763 ?x762 ?x761 ?x760 ?x759 ?x758 ?x757 ?x756 ?x755 ?x754 ?x753 ?x752 ?x751 ?x750 ?x749 ?x748 ?x747 ?x746 ?x745 ?x744 ?x743 ?x742 ?x741 ?x740 ?x739 ?x738 ?x737 ?x736 ?x735)))
 (let (($x588 (= s_47 (bvadd cx_6 cx_7))))
 (let (($x871 (= s_40 (bvadd cx_45 cx_46))))
 (let (($x614 (= s_39 (bvadd cx_4 cx_5))))
 (let (($x815 (= s_35 (bvadd cx_17 cx_18 cx_24 cx_25))))
 (let (($x631 (= s_34 (bvadd cx_23 cx_24 cx_30 cx_31))))
 (let (($x578 (= s_32 (bvadd cx_43 cx_44))))
 (let (($x582 (= s_31 (bvadd cx_2 cx_3))))
 (let (($x590 (= s_30 (bvadd cx_13 cx_14 cx_20 cx_21))))
 (let (($x604 (= s_28 (bvadd cx_11 cx_12 cx_18 cx_19))))
 (let (($x624 (= s_26 (bvadd cx_9 cx_10 cx_16 cx_17))))
 (let (($x630 (= s_25 (bvadd cx_1 cx_2 cx_8 cx_9))))
 (let (($x654 (= s_24 (bvadd cz_42 cz_49))))
 (let (($x662 (= s_23 (bvadd cz_29 cz_36))))
 (let (($x669 (= s_22 (bvadd cz_40 cz_41 cz_47 cz_48))))
 (let (($x520 (= s_21 (bvadd cz_34 cz_35 cz_41 cz_42))))
 (let (($x522 (= s_20 (bvadd cz_38 cz_39 cz_45 cz_46))))
 (let (($x524 (= s_19 (bvadd cz_32 cz_33 cz_39 cz_40))))
 (let (($x528 (= s_17 (bvadd cz_30 cz_31 cz_37 cz_38))))
 (let (($x530 (= s_16 (bvadd cz_28 cz_35))))
 (let (($x532 (= s_15 (bvadd cz_15 cz_22))))
 (let (($x534 (= s_14 (bvadd cz_26 cz_27 cz_33 cz_34))))
 (let (($x536 (= s_13 (bvadd cz_20 cz_21 cz_27 cz_28))))
 (let (($x538 (= s_12 (bvadd cz_24 cz_25 cz_31 cz_32))))
 (let (($x540 (= s_11 (bvadd cz_18 cz_19 cz_25 cz_26))))
 (let (($x544 (= s_9 (bvadd cz_16 cz_17 cz_23 cz_24))))
 (let (($x546 (= s_8 (bvadd cz_14 cz_21))))
 (let (($x550 (= s_6 (bvadd cz_12 cz_13 cz_19 cz_20))))
 (let (($x552 (= s_5 (bvadd cz_6 cz_7 cz_13 cz_14))))
 (let (($x554 (= s_4 (bvadd cz_10 cz_11 cz_17 cz_18))))
 (let (($x556 (= s_3 (bvadd cz_4 cz_5 cz_11 cz_12))))
 (let (($x560 (= s_1 (bvadd cz_2 cz_3 cz_9 cz_10))))
 (let ((?x561 (bvadd cz_1 cz_2 cz_3 cz_4 cz_5 cz_6 cz_7 ez_2 ez_3 ez_4 ez_5 ez_6 ez_7)))
 (let ((?x317 (bvadd ex_47 ex_48)))
 (let (($x563 (= s_48 ?x317)))
 (let ((?x314 (bvadd ex_6 ex_7)))
 (let (($x564 (= s_47 ?x314)))
 (let ((?x459 (bvadd ex_41 ex_42 ex_48 ex_49)))
 (let (($x565 (= s_46 ?x459)))
 (let ((?x457 (bvadd ex_33 ex_34 ex_40 ex_41)))
 (let (($x566 (= s_45 ?x457)))
 (let ((?x453 (bvadd ex_31 ex_32 ex_38 ex_39)))
 (let (($x568 (= s_43 ?x453)))
 (let ((?x269 (bvadd ex_45 ex_46)))
 (let (($x849 (= s_40 ?x269)))
 (let ((?x264 (bvadd ex_4 ex_5)))
 (let (($x825 (= s_39 ?x264)))
 (let ((?x447 (bvadd ex_27 ex_28 ex_34 ex_35)))
 (let (($x797 (= s_38 ?x447)))
 (let ((?x445 (bvadd ex_19 ex_20 ex_26 ex_27)))
 (let (($x663 (= s_37 ?x445)))
 (let ((?x443 (bvadd ex_25 ex_26 ex_32 ex_33)))
 (let (($x813 (= s_36 ?x443)))
 (let ((?x441 (bvadd ex_17 ex_18 ex_24 ex_25)))
 (let (($x655 (= s_35 ?x441)))
 (let ((?x439 (bvadd ex_23 ex_24 ex_30 ex_31)))
 (let (($x647 (= s_34 ?x439)))
 (let ((?x217 (bvadd ex_43 ex_44)))
 (let (($x597 (= s_32 ?x217)))
 (let ((?x212 (bvadd ex_2 ex_3)))
 (let (($x821 (= s_31 ?x212)))
 (let ((?x435 (bvadd ex_13 ex_14 ex_20 ex_21)))
 (let (($x807 (= s_30 ?x435)))
 (let ((?x431 (bvadd ex_11 ex_12 ex_18 ex_19)))
 (let (($x627 (= s_28 ?x431)))
 (let ((?x427 (bvadd ex_9 ex_10 ex_16 ex_17)))
 (let (($x581 (= s_26 ?x427)))
 (let ((?x425 (bvadd ex_1 ex_2 ex_8 ex_9)))
 (let (($x619 (= s_25 ?x425)))
 (let ((?x160 (bvadd ez_42 ez_49)))
 (let (($x589 (= s_24 ?x160)))
 (let ((?x156 (bvadd ez_29 ez_36)))
 (let (($x817 (= s_23 ?x156)))
 (let ((?x423 (bvadd ez_40 ez_41 ez_47 ez_48)))
 (let (($x629 (= s_22 ?x423)))
 (let ((?x421 (bvadd ez_34 ez_35 ez_41 ez_42)))
 (let (($x801 (= s_21 ?x421)))
 (let ((?x419 (bvadd ez_38 ez_39 ez_45 ez_46)))
 (let (($x823 (= s_20 ?x419)))
 (let ((?x417 (bvadd ez_32 ez_33 ez_39 ez_40)))
 (let (($x827 (= s_19 ?x417)))
 (let ((?x413 (bvadd ez_30 ez_31 ez_37 ez_38)))
 (let (($x835 (= s_17 ?x413)))
 (let ((?x110 (bvadd ez_28 ez_35)))
 (let (($x605 (= s_16 ?x110)))
 (let ((?x106 (bvadd ez_15 ez_22)))
 (let (($x515 (= s_15 ?x106)))
 (let ((?x411 (bvadd ez_26 ez_27 ez_33 ez_34)))
 (let (($x517 (= s_14 ?x411)))
 (let ((?x409 (bvadd ez_20 ez_21 ez_27 ez_28)))
 (let (($x518 (= s_13 ?x409)))
 (let ((?x407 (bvadd ez_24 ez_25 ez_31 ez_32)))
 (let (($x661 (= s_12 ?x407)))
 (let ((?x405 (bvadd ez_18 ez_19 ez_25 ez_26)))
 (let (($x833 (= s_11 ?x405)))
 (let ((?x401 (bvadd ez_16 ez_17 ez_23 ez_24)))
 (let (($x845 (= s_9 ?x401)))
 (let ((?x60 (bvadd ez_14 ez_21)))
 (let (($x583 (= s_8 ?x60)))
 (let ((?x399 (bvadd ez_12 ez_13 ez_19 ez_20)))
 (let (($x847 (= s_6 ?x399)))
 (let ((?x397 (bvadd ez_6 ez_7 ez_13 ez_14)))
 (let (($x653 (= s_5 ?x397)))
 (let ((?x395 (bvadd ez_10 ez_11 ez_17 ez_18)))
 (let (($x595 (= s_4 ?x395)))
 (let ((?x393 (bvadd ez_4 ez_5 ez_11 ez_12)))
 (let (($x611 (= s_3 ?x393)))
 (let ((?x389 (bvadd ez_2 ez_3 ez_9 ez_10)))
 (let (($x875 (= s_1 ?x389)))
 (let (($x876 (and $x875 (= s_2 (bvadd ez_8 ez_9 ez_15 ez_16)) $x611 $x595 $x653 $x847 (= s_7 (bvadd ez_1 ez_8)) $x583 $x845 (= s_10 (bvadd ez_22 ez_23 ez_29 ez_30)) $x833 $x661 $x518 $x517 $x515 $x605 $x835 (= s_18 (bvadd ez_36 ez_37 ez_43 ez_44)) $x827 $x823 $x801 $x629 $x817 $x589 $x619 $x581 (= s_27 (bvadd ex_3 ex_4 ex_10 ex_11)) $x627 (= s_29 (bvadd ex_5 ex_6 ex_12 ex_13)) $x807 $x821 $x597 (= s_33 (bvadd ex_15 ex_16 ex_22 ex_23)) $x647 $x655 $x813 $x663 $x797 $x825 $x849 (= s_41 (bvadd ex_29 ex_30 ex_36 ex_37)) (= s_42 (bvadd ex_37 ex_38 ex_44 ex_45)) $x568 (= s_44 (bvadd ex_39 ex_40 ex_46 ex_47)) $x566 $x565 $x564 $x563 (= ez_1 ?x561) $x560 (= s_2 (bvadd cz_8 cz_9 cz_15 cz_16)) $x556 $x554 $x552 $x550 (= s_7 (bvadd cz_1 cz_8)) $x546 $x544 (= s_10 (bvadd cz_22 cz_23 cz_29 cz_30)) $x540 $x538 $x536 $x534 $x532 $x530 $x528 (= s_18 (bvadd cz_36 cz_37 cz_43 cz_44)) $x524 $x522 $x520 $x669 $x662 $x654 $x630 $x624 (= s_27 (bvadd cx_3 cx_4 cx_10 cx_11)) $x604 (= s_29 (bvadd cx_5 cx_6 cx_12 cx_13)) $x590 $x582 $x578 (= s_33 (bvadd cx_15 cx_16 cx_22 cx_23)) $x631 $x815 (= s_36 (bvadd cx_25 cx_26 cx_32 cx_33)) (= s_37 (bvadd cx_19 cx_20 cx_26 cx_27)) (= s_38 (bvadd cx_27 cx_28 cx_34 cx_35)) $x614 $x871 (= s_41 (bvadd cx_29 cx_30 cx_36 cx_37)) (= s_42 (bvadd cx_37 cx_38 cx_44 cx_45)) (= s_43 (bvadd cx_31 cx_32 cx_38 cx_39)) (= s_44 (bvadd cx_39 cx_40 cx_46 cx_47)) (= s_45 (bvadd cx_33 cx_34 cx_40 cx_41)) (= s_46 (bvadd cx_41 cx_42 cx_48 cx_49)) $x588 (= s_48 (bvadd cx_47 cx_48)) (bvule ?x576 ?x1352) (bvule ?x733 ?x1556))))
 (let (($x874 (and $x514 $x721)))
 (and $x874 (not $x876))))))))))))))))))))))))))))))))))))))))))))))))))))))))))))))))))))))))))))))))))))))))))))))))))))))))))))))))))))))))))))))))))))))))))))))))))))))))))))))))))))))))))))))))))))))))))))))))))))))))))))))))))))))))))))))))))))))))))))))))))))))))))))))))))))))))))))
 )
(check-sat)